TOUR_SECTION
1
31
3
81
109
83
166
149
141
33
92
76
183
117
47
100
99
185
191
107
45
122
170
198
61
105
182
56
36
186
44
27
37
118
151
179
22
85
70
190
84
116
110
62
64
195
24
126
2
194
169
132
135
200
63
23
53
157
108
134
65
137
188
150
87
68
112
197
51
189
60
153
57
94
177
156
124
104
193
196
89
78
96
163
9
26
160
25
40
77
8
146
164
21
95
192
82
123
201
176
161
128
145
103
168
55
98
159
67
175
29
73
147
148
34
140
178
46
43
142
69
155
80
115
6
17
18
114
113
54
187
125
66
154
90
20
12
41
102
139
162
7
199
165
133
71
174
143
16
38
39
173
59
74
32
167
97
180
79
30
13
138
88
127
4
129
10
152
14
28
144
50
111
42
93
11
49
72
106
75
48
120
52
181
172
5
35
58
130
15
119
19
86
131
91
121
101
136
158
184
171
-1
EOF